Version identifier: 12.10.0.0 | 2019-11-26 | 843d4de
CPXPARAM_WorkMem                                 28672
Tried aggregator 2 times.
Aggregator did 30 substitutions.
Reduced MIP has 103 rows, 120 columns, and 462 nonzeros.
Reduced MIP has 120 binaries, 0 generals, 0 SOSs, and 0 indicators.
Presolve time = 0,00 sec. (0,44 ticks)
Found incumbent of value 90,000000 after 0,00 sec. (0,80 ticks)
Probing time = 0,00 sec. (0,16 ticks)
Tried aggregator 1 time.
Detecting symmetries...
MIP Presolve eliminated 30 rows and 0 columns.
MIP Presolve added 60 rows and 0 columns.
Reduced MIP has 133 rows, 120 columns, and 492 nonzeros.
Reduced MIP has 120 binaries, 0 generals, 0 SOSs, and 0 indicators.
Presolve time = 0,00 sec. (0,54 ticks)
Probing time = 0,00 sec. (0,15 ticks)
Clique table members: 322.
MIP emphasis: balance optimality and feasibility.
MIP search method: dynamic search.
Parallel mode: deterministic, using up to 16 threads.
Root relaxation solution time = 0,00 sec. (0,53 ticks)

        Nodes                                         Cuts/
   Node  Left     Objective  IInf  Best Integer    Best Bound    ItCnt     Gap

*     0+    0                           90,0000        0,0000           100,00%
*     0+    0                           65,0000        0,0000           100,00%
*     0+    0                           64,0000        0,0000           100,00%
*     0+    0                           61,0000        0,0000           100,00%
      0     0       30,0000   114       61,0000       30,0000       62   50,82%
*     0+    0                           60,0000       30,0000            50,00%
      0     0       30,5372   114       60,0000     Cuts: 109      117   49,10%
      0     0       32,0892   114       60,0000      Cuts: 68      139   46,52%
      0     0       32,2538   114       60,0000      Fract: 3      150   46,24%
      0     0       32,4052   114       60,0000      Cuts: 53      162   45,99%
      0     0       32,5496   114       60,0000       Cuts: 4      176   45,75%
Detecting symmetries...
      0     0       32,5582   114       60,0000      Cuts: 36      179   45,74%
      0     0       32,6041   114       60,0000       Cuts: 3      196   45,66%
      0     0       32,6138   114       60,0000      Cuts: 16      206   45,64%
      0     0       32,6216   114       60,0000      Cuts: 43      209   45,63%
*     0+    0                           59,0000       32,6216            44,71%
*     0+    0                           54,0000       32,6216            39,59%
      0     0        cutoff             54,0000       54,0000      209    0,00%
Elapsed time = 0,07 sec. (29,18 ticks, tree = 0,01 MB, solutions = 7)

Clique cuts applied:  4
Cover cuts applied:  8
Implied bound cuts applied:  1
Flow cuts applied:  5
Mixed integer rounding cuts applied:  35
Zero-half cuts applied:  11
Lift and project cuts applied:  1
Gomory fractional cuts applied:  10

Root node processing (before b&c):
  Real time             =    0,07 sec. (29,19 ticks)
Parallel b&c, 16 threads:
  Real time             =    0,00 sec. (0,00 ticks)
  Sync time (average)   =    0,00 sec.
  Wait time (average)   =    0,00 sec.
                          ------------
Total (root+branch&cut) =    0,07 sec. (29,19 ticks)
